data/lp_files/pEFS/83_9.lp
\ Model foo
\ LP format - for model browsing. Use MPS format to capture full model detail.
Minimize
  z
Subject To
 allocateEach[1]: x[1,1] + x[2,1] + x[3,1] + x[4,1] + x[5,1] = 1
 allocateEach[2]: x[1,2] + x[2,2] + x[3,2] + x[4,2] + x[5,2] = 1
 allocateEach[3]: x[1,3] + x[2,3] + x[3,3] + x[4,3] + x[5,3] = 1
 allocateAllCash: cashProportion[1] + cashProportion[2] + cashProportion[3]
   + cashProportion[4] + cashProportion[5] = 1
 findWorstP[1,2]: z + 0.3532445512027977 cashProportion[1]
   - 0.3532445512027977 cashProportion[2] + 0.2674061252605178 x[1,1]
   + 0.0814228690522449 x[1,2] + 0.2979264544844396 x[1,3]
   - 0.2674061252605178 x[2,1] - 0.0814228690522449 x[2,2]
   - 0.2979264544844396 x[2,3] >= 0
 findWorstP[1,3]: z + 0.3532445512027977 cashProportion[1]
   - 0.3532445512027977 cashProportion[3] + 0.2674061252605178 x[1,1]
   + 0.0814228690522449 x[1,2] + 0.2979264544844396 x[1,3]
   - 0.2674061252605178 x[3,1] - 0.0814228690522449 x[3,2]
   - 0.2979264544844396 x[3,3] >= 0
 findWorstP[1,4]: z + 0.3532445512027977 cashProportion[1]
   - 0.3532445512027977 cashProportion[4] + 0.2674061252605178 x[1,1]
   + 0.0814228690522449 x[1,2] + 0.2979264544844396 x[1,3]
   - 0.2674061252605178 x[4,1] - 0.0814228690522449 x[4,2]
   - 0.2979264544844396 x[4,3] >= 0
 findWorstP[1,5]: z + 0.3532445512027977 cashProportion[1]
   - 0.3532445512027977 cashProportion[5] + 0.2674061252605178 x[1,1]
   + 0.0814228690522449 x[1,2] + 0.2979264544844396 x[1,3]
   - 0.2674061252605178 x[5,1] - 0.0814228690522449 x[5,2]
   - 0.2979264544844396 x[5,3] >= 0
 findWorstP[2,1]: z - 0.4443654461429081 cashProportion[1]
   + 0.4443654461429081 cashProportion[2] - 0.0802079630287949 x[1,1]
   - 0.1620600782083186 x[1,2] - 0.3133665126199787 x[1,3]
   + 0.0802079630287949 x[2,1] + 0.1620600782083186 x[2,2]
   + 0.3133665126199787 x[2,3] >= 0
 findWorstP[2,3]: z + 0.4443654461429081 cashProportion[2]
   - 0.4443654461429081 cashProportion[3] + 0.0802079630287949 x[2,1]
   + 0.1620600782083186 x[2,2] + 0.3133665126199787 x[2,3]
   - 0.0802079630287949 x[3,1] - 0.1620600782083186 x[3,2]
   - 0.3133665126199787 x[3,3] >= 0
 findWorstP[2,4]: z + 0.4443654461429081 cashProportion[2]
   - 0.4443654461429081 cashProportion[4] + 0.0802079630287949 x[2,1]
   + 0.1620600782083186 x[2,2] + 0.3133665126199787 x[2,3]
   - 0.0802079630287949 x[4,1] - 0.1620600782083186 x[4,2]
   - 0.3133665126199787 x[4,3] >= 0
 findWorstP[2,5]: z + 0.4443654461429081 cashProportion[2]
   - 0.4443654461429081 cashProportion[5] + 0.0802079630287949 x[2,1]
   + 0.1620600782083186 x[2,2] + 0.3133665126199787 x[2,3]
   - 0.0802079630287949 x[5,1] - 0.1620600782083186 x[5,2]
   - 0.3133665126199787 x[5,3] >= 0
 findWorstP[3,1]: z - 0.3095017022593625 cashProportion[1]
   + 0.3095017022593625 cashProportion[3] - 0.2188796038378212 x[1,1]
   - 0.1703187867533272 x[1,2] - 0.3012999071494893 x[1,3]
   + 0.2188796038378212 x[3,1] + 0.1703187867533272 x[3,2]
   + 0.3012999071494893 x[3,3] >= 0
 findWorstP[3,2]: z - 0.3095017022593625 cashProportion[2]
   + 0.3095017022593625 cashProportion[3] - 0.2188796038378212 x[2,1]
   - 0.1703187867533272 x[2,2] - 0.3012999071494893 x[2,3]
   + 0.2188796038378212 x[3,1] + 0.1703187867533272 x[3,2]
   + 0.3012999071494893 x[3,3] >= 0
 findWorstP[3,4]: z + 0.3095017022593625 cashProportion[3]
   - 0.3095017022593625 cashProportion[4] + 0.2188796038378212 x[3,1]
   + 0.1703187867533272 x[3,2] + 0.3012999071494893 x[3,3]
   - 0.2188796038378212 x[4,1] - 0.1703187867533272 x[4,2]
   - 0.3012999071494893 x[4,3] >= 0
 findWorstP[3,5]: z + 0.3095017022593625 cashProportion[3]
   - 0.3095017022593625 cashProportion[5] + 0.2188796038378212 x[3,1]
   + 0.1703187867533272 x[3,2] + 0.3012999071494893 x[3,3]
   - 0.2188796038378212 x[5,1] - 0.1703187867533272 x[5,2]
   - 0.3012999071494893 x[5,3] >= 0
 findWorstP[4,1]: z - 0.5680527152919791 cashProportion[1]
   + 0.5680527152919791 cashProportion[4] - 0.2446034992047261 x[1,1]
   - 0.1008861622358555 x[1,2] - 0.0864576232674392 x[1,3]
   + 0.2446034992047261 x[4,1] + 0.1008861622358555 x[4,2]
   + 0.0864576232674392 x[4,3] >= 0
 findWorstP[4,2]: z - 0.5680527152919791 cashProportion[2]
   + 0.5680527152919791 cashProportion[4] - 0.2446034992047261 x[2,1]
   - 0.1008861622358555 x[2,2] - 0.0864576232674392 x[2,3]
   + 0.2446034992047261 x[4,1] + 0.1008861622358555 x[4,2]
   + 0.0864576232674392 x[4,3] >= 0
 findWorstP[4,3]: z - 0.5680527152919791 cashProportion[3]
   + 0.5680527152919791 cashProportion[4] - 0.2446034992047261 x[3,1]
   - 0.1008861622358555 x[3,2] - 0.0864576232674392 x[3,3]
   + 0.2446034992047261 x[4,1] + 0.1008861622358555 x[4,2]
   + 0.0864576232674392 x[4,3] >= 0
 findWorstP[4,5]: z + 0.5680527152919791 cashProportion[4]
   - 0.5680527152919791 cashProportion[5] + 0.2446034992047261 x[4,1]
   + 0.1008861622358555 x[4,2] + 0.0864576232674392 x[4,3]
   - 0.2446034992047261 x[5,1] - 0.1008861622358555 x[5,2]
   - 0.0864576232674392 x[5,3] >= 0
 findWorstP[5,1]: z - 0.3228722717293039 cashProportion[1]
   + 0.3228722717293039 cashProportion[5] - 0.1714128890610875 x[1,1]
   - 0.275958930647036 x[1,2] - 0.2297559085625726 x[1,3]
   + 0.1714128890610875 x[5,1] + 0.275958930647036 x[5,2]
   + 0.2297559085625726 x[5,3] >= 0
 findWorstP[5,2]: z - 0.3228722717293039 cashProportion[2]
   + 0.3228722717293039 cashProportion[5] - 0.1714128890610875 x[2,1]
   - 0.275958930647036 x[2,2] - 0.2297559085625726 x[2,3]
   + 0.1714128890610875 x[5,1] + 0.275958930647036 x[5,2]
   + 0.2297559085625726 x[5,3] >= 0
 findWorstP[5,3]: z - 0.3228722717293039 cashProportion[3]
   + 0.3228722717293039 cashProportion[5] - 0.1714128890610875 x[3,1]
   - 0.275958930647036 x[3,2] - 0.2297559085625726 x[3,3]
   + 0.1714128890610875 x[5,1] + 0.275958930647036 x[5,2]
   + 0.2297559085625726 x[5,3] >= 0
 findWorstP[5,4]: z - 0.3228722717293039 cashProportion[4]
   + 0.3228722717293039 cashProportion[5] - 0.1714128890610875 x[4,1]
   - 0.275958930647036 x[4,2] - 0.2297559085625726 x[4,3]
   + 0.1714128890610875 x[5,1] + 0.275958930647036 x[5,2]
   + 0.2297559085625726 x[5,3] >= 0
Bounds
 z <= 1
 -infinity <= cashProportion[1] <= 1
 -infinity <= cashProportion[2] <= 1
 -infinity <= cashProportion[3] <= 1
 -infinity <= cashProportion[4] <= 1
 -infinity <= cashProportion[5] <= 1
Binaries
 x[1,1] x[1,2] x[1,3] x[2,1] x[2,2] x[2,3] x[3,1] x[3,2] x[3,3] x[4,1]
 x[4,2] x[4,3] x[5,1] x[5,2] x[5,3]
End
