data/mps_files/q3/83_9.mps
NAME foo
ROWS
 N  OBJ
 E  allocateEach[1]
 E  allocateEach[2]
 E  allocateEach[3]
 E  allocateAllCash
 G  findWorstP[1,2]
 G  findWorstP[1,3]
 G  findWorstP[1,4]
 G  findWorstP[1,5]
 G  findWorstP[2,1]
 G  findWorstP[2,3]
 G  findWorstP[2,4]
 G  findWorstP[2,5]
 G  findWorstP[3,1]
 G  findWorstP[3,2]
 G  findWorstP[3,4]
 G  findWorstP[3,5]
 G  findWorstP[4,1]
 G  findWorstP[4,2]
 G  findWorstP[4,3]
 G  findWorstP[4,5]
 G  findWorstP[5,1]
 G  findWorstP[5,2]
 G  findWorstP[5,3]
 G  findWorstP[5,4]
COLUMNS
    z         OBJ       1
    z         findWorstP[1,2]  1
    z         findWorstP[1,3]  1
    z         findWorstP[1,4]  1
    z         findWorstP[1,5]  1
    z         findWorstP[2,1]  1
    z         findWorstP[2,3]  1
    z         findWorstP[2,4]  1
    z         findWorstP[2,5]  1
    z         findWorstP[3,1]  1
    z         findWorstP[3,2]  1
    z         findWorstP[3,4]  1
    z         findWorstP[3,5]  1
    z         findWorstP[4,1]  1
    z         findWorstP[4,2]  1
    z         findWorstP[4,3]  1
    z         findWorstP[4,5]  1
    z         findWorstP[5,1]  1
    z         findWorstP[5,2]  1
    z         findWorstP[5,3]  1
    z         findWorstP[5,4]  1
    cashProportion[1]  allocateAllCash  1
    cashProportion[1]  findWorstP[1,2]  3.5324455120279769e-01
    cashProportion[1]  findWorstP[1,3]  3.5324455120279769e-01
    cashProportion[1]  findWorstP[1,4]  3.5324455120279769e-01
    cashProportion[1]  findWorstP[1,5]  3.5324455120279769e-01
    cashProportion[1]  findWorstP[2,1]  -4.4436544614290807e-01
    cashProportion[1]  findWorstP[3,1]  -3.0950170225936252e-01
    cashProportion[1]  findWorstP[4,1]  -5.6805271529197909e-01
    cashProportion[1]  findWorstP[5,1]  -3.2287227172930394e-01
    cashProportion[2]  allocateAllCash  1
    cashProportion[2]  findWorstP[1,2]  -3.5324455120279769e-01
    cashProportion[2]  findWorstP[2,1]  4.4436544614290807e-01
    cashProportion[2]  findWorstP[2,3]  4.4436544614290807e-01
    cashProportion[2]  findWorstP[2,4]  4.4436544614290807e-01
    cashProportion[2]  findWorstP[2,5]  4.4436544614290807e-01
    cashProportion[2]  findWorstP[3,2]  -3.0950170225936252e-01
    cashProportion[2]  findWorstP[4,2]  -5.6805271529197909e-01
    cashProportion[2]  findWorstP[5,2]  -3.2287227172930394e-01
    cashProportion[3]  allocateAllCash  1
    cashProportion[3]  findWorstP[1,3]  -3.5324455120279769e-01
    cashProportion[3]  findWorstP[2,3]  -4.4436544614290807e-01
    cashProportion[3]  findWorstP[3,1]  3.0950170225936252e-01
    cashProportion[3]  findWorstP[3,2]  3.0950170225936252e-01
    cashProportion[3]  findWorstP[3,4]  3.0950170225936252e-01
    cashProportion[3]  findWorstP[3,5]  3.0950170225936252e-01
    cashProportion[3]  findWorstP[4,3]  -5.6805271529197909e-01
    cashProportion[3]  findWorstP[5,3]  -3.2287227172930394e-01
    cashProportion[4]  allocateAllCash  1
    cashProportion[4]  findWorstP[1,4]  -3.5324455120279769e-01
    cashProportion[4]  findWorstP[2,4]  -4.4436544614290807e-01
    cashProportion[4]  findWorstP[3,4]  -3.0950170225936252e-01
    cashProportion[4]  findWorstP[4,1]  5.6805271529197909e-01
    cashProportion[4]  findWorstP[4,2]  5.6805271529197909e-01
    cashProportion[4]  findWorstP[4,3]  5.6805271529197909e-01
    cashProportion[4]  findWorstP[4,5]  5.6805271529197909e-01
    cashProportion[4]  findWorstP[5,4]  -3.2287227172930394e-01
    cashProportion[5]  allocateAllCash  1
    cashProportion[5]  findWorstP[1,5]  -3.5324455120279769e-01
    cashProportion[5]  findWorstP[2,5]  -4.4436544614290807e-01
    cashProportion[5]  findWorstP[3,5]  -3.0950170225936252e-01
    cashProportion[5]  findWorstP[4,5]  -5.6805271529197909e-01
    cashProportion[5]  findWorstP[5,1]  3.2287227172930394e-01
    cashProportion[5]  findWorstP[5,2]  3.2287227172930394e-01
    cashProportion[5]  findWorstP[5,3]  3.2287227172930394e-01
    cashProportion[5]  findWorstP[5,4]  3.2287227172930394e-01
    MARKER    'MARKER'                 'INTORG'
    x[1,1]    allocateEach[1]  1
    x[1,1]    findWorstP[1,2]  2.6740612526051782e-01
    x[1,1]    findWorstP[1,3]  2.6740612526051782e-01
    x[1,1]    findWorstP[1,4]  2.6740612526051782e-01
    x[1,1]    findWorstP[1,5]  2.6740612526051782e-01
    x[1,1]    findWorstP[2,1]  -8.0207963028794890e-02
    x[1,1]    findWorstP[3,1]  -2.1887960383782115e-01
    x[1,1]    findWorstP[4,1]  -2.4460349920472613e-01
    x[1,1]    findWorstP[5,1]  -1.7141288906108745e-01
    x[1,2]    allocateEach[2]  1
    x[1,2]    findWorstP[1,2]  8.1422869052244856e-02
    x[1,2]    findWorstP[1,3]  8.1422869052244856e-02
    x[1,2]    findWorstP[1,4]  8.1422869052244856e-02
    x[1,2]    findWorstP[1,5]  8.1422869052244856e-02
    x[1,2]    findWorstP[2,1]  -1.6206007820831855e-01
    x[1,2]    findWorstP[3,1]  -1.7031878675332718e-01
    x[1,2]    findWorstP[4,1]  -1.0088616223585548e-01
    x[1,2]    findWorstP[5,1]  -0.275958930647036
    x[1,3]    allocateEach[3]  1
    x[1,3]    findWorstP[1,2]  2.9792645448443955e-01
    x[1,3]    findWorstP[1,3]  2.9792645448443955e-01
    x[1,3]    findWorstP[1,4]  2.9792645448443955e-01
    x[1,3]    findWorstP[1,5]  2.9792645448443955e-01
    x[1,3]    findWorstP[2,1]  -3.1336651261997872e-01
    x[1,3]    findWorstP[3,1]  -3.0129990714948934e-01
    x[1,3]    findWorstP[4,1]  -8.6457623267439207e-02
    x[1,3]    findWorstP[5,1]  -2.2975590856257264e-01
    x[2,1]    allocateEach[1]  1
    x[2,1]    findWorstP[1,2]  -2.6740612526051782e-01
    x[2,1]    findWorstP[2,1]  8.0207963028794890e-02
    x[2,1]    findWorstP[2,3]  8.0207963028794890e-02
    x[2,1]    findWorstP[2,4]  8.0207963028794890e-02
    x[2,1]    findWorstP[2,5]  8.0207963028794890e-02
    x[2,1]    findWorstP[3,2]  -2.1887960383782115e-01
    x[2,1]    findWorstP[4,2]  -2.4460349920472613e-01
    x[2,1]    findWorstP[5,2]  -1.7141288906108745e-01
    x[2,2]    allocateEach[2]  1
    x[2,2]    findWorstP[1,2]  -8.1422869052244856e-02
    x[2,2]    findWorstP[2,1]  1.6206007820831855e-01
    x[2,2]    findWorstP[2,3]  1.6206007820831855e-01
    x[2,2]    findWorstP[2,4]  1.6206007820831855e-01
    x[2,2]    findWorstP[2,5]  1.6206007820831855e-01
    x[2,2]    findWorstP[3,2]  -1.7031878675332718e-01
    x[2,2]    findWorstP[4,2]  -1.0088616223585548e-01
    x[2,2]    findWorstP[5,2]  -0.275958930647036
    x[2,3]    allocateEach[3]  1
    x[2,3]    findWorstP[1,2]  -2.9792645448443955e-01
    x[2,3]    findWorstP[2,1]  3.1336651261997872e-01
    x[2,3]    findWorstP[2,3]  3.1336651261997872e-01
    x[2,3]    findWorstP[2,4]  3.1336651261997872e-01
    x[2,3]    findWorstP[2,5]  3.1336651261997872e-01
    x[2,3]    findWorstP[3,2]  -3.0129990714948934e-01
    x[2,3]    findWorstP[4,2]  -8.6457623267439207e-02
    x[2,3]    findWorstP[5,2]  -2.2975590856257264e-01
    x[3,1]    allocateEach[1]  1
    x[3,1]    findWorstP[1,3]  -2.6740612526051782e-01
    x[3,1]    findWorstP[2,3]  -8.0207963028794890e-02
    x[3,1]    findWorstP[3,1]  2.1887960383782115e-01
    x[3,1]    findWorstP[3,2]  2.1887960383782115e-01
    x[3,1]    findWorstP[3,4]  2.1887960383782115e-01
    x[3,1]    findWorstP[3,5]  2.1887960383782115e-01
    x[3,1]    findWorstP[4,3]  -2.4460349920472613e-01
    x[3,1]    findWorstP[5,3]  -1.7141288906108745e-01
    x[3,2]    allocateEach[2]  1
    x[3,2]    findWorstP[1,3]  -8.1422869052244856e-02
    x[3,2]    findWorstP[2,3]  -1.6206007820831855e-01
    x[3,2]    findWorstP[3,1]  1.7031878675332718e-01
    x[3,2]    findWorstP[3,2]  1.7031878675332718e-01
    x[3,2]    findWorstP[3,4]  1.7031878675332718e-01
    x[3,2]    findWorstP[3,5]  1.7031878675332718e-01
    x[3,2]    findWorstP[4,3]  -1.0088616223585548e-01
    x[3,2]    findWorstP[5,3]  -0.275958930647036
    x[3,3]    allocateEach[3]  1
    x[3,3]    findWorstP[1,3]  -2.9792645448443955e-01
    x[3,3]    findWorstP[2,3]  -3.1336651261997872e-01
    x[3,3]    findWorstP[3,1]  3.0129990714948934e-01
    x[3,3]    findWorstP[3,2]  3.0129990714948934e-01
    x[3,3]    findWorstP[3,4]  3.0129990714948934e-01
    x[3,3]    findWorstP[3,5]  3.0129990714948934e-01
    x[3,3]    findWorstP[4,3]  -8.6457623267439207e-02
    x[3,3]    findWorstP[5,3]  -2.2975590856257264e-01
    x[4,1]    allocateEach[1]  1
    x[4,1]    findWorstP[1,4]  -2.6740612526051782e-01
    x[4,1]    findWorstP[2,4]  -8.0207963028794890e-02
    x[4,1]    findWorstP[3,4]  -2.1887960383782115e-01
    x[4,1]    findWorstP[4,1]  2.4460349920472613e-01
    x[4,1]    findWorstP[4,2]  2.4460349920472613e-01
    x[4,1]    findWorstP[4,3]  2.4460349920472613e-01
    x[4,1]    findWorstP[4,5]  2.4460349920472613e-01
    x[4,1]    findWorstP[5,4]  -1.7141288906108745e-01
    x[4,2]    allocateEach[2]  1
    x[4,2]    findWorstP[1,4]  -8.1422869052244856e-02
    x[4,2]    findWorstP[2,4]  -1.6206007820831855e-01
    x[4,2]    findWorstP[3,4]  -1.7031878675332718e-01
    x[4,2]    findWorstP[4,1]  1.0088616223585548e-01
    x[4,2]    findWorstP[4,2]  1.0088616223585548e-01
    x[4,2]    findWorstP[4,3]  1.0088616223585548e-01
    x[4,2]    findWorstP[4,5]  1.0088616223585548e-01
    x[4,2]    findWorstP[5,4]  -0.275958930647036
    x[4,3]    allocateEach[3]  1
    x[4,3]    findWorstP[1,4]  -2.9792645448443955e-01
    x[4,3]    findWorstP[2,4]  -3.1336651261997872e-01
    x[4,3]    findWorstP[3,4]  -3.0129990714948934e-01
    x[4,3]    findWorstP[4,1]  8.6457623267439207e-02
    x[4,3]    findWorstP[4,2]  8.6457623267439207e-02
    x[4,3]    findWorstP[4,3]  8.6457623267439207e-02
    x[4,3]    findWorstP[4,5]  8.6457623267439207e-02
    x[4,3]    findWorstP[5,4]  -2.2975590856257264e-01
    x[5,1]    allocateEach[1]  1
    x[5,1]    findWorstP[1,5]  -2.6740612526051782e-01
    x[5,1]    findWorstP[2,5]  -8.0207963028794890e-02
    x[5,1]    findWorstP[3,5]  -2.1887960383782115e-01
    x[5,1]    findWorstP[4,5]  -2.4460349920472613e-01
    x[5,1]    findWorstP[5,1]  1.7141288906108745e-01
    x[5,1]    findWorstP[5,2]  1.7141288906108745e-01
    x[5,1]    findWorstP[5,3]  1.7141288906108745e-01
    x[5,1]    findWorstP[5,4]  1.7141288906108745e-01
    x[5,2]    allocateEach[2]  1
    x[5,2]    findWorstP[1,5]  -8.1422869052244856e-02
    x[5,2]    findWorstP[2,5]  -1.6206007820831855e-01
    x[5,2]    findWorstP[3,5]  -1.7031878675332718e-01
    x[5,2]    findWorstP[4,5]  -1.0088616223585548e-01
    x[5,2]    findWorstP[5,1]  0.275958930647036
    x[5,2]    findWorstP[5,2]  0.275958930647036
    x[5,2]    findWorstP[5,3]  0.275958930647036
    x[5,2]    findWorstP[5,4]  0.275958930647036
    x[5,3]    allocateEach[3]  1
    x[5,3]    findWorstP[1,5]  -2.9792645448443955e-01
    x[5,3]    findWorstP[2,5]  -3.1336651261997872e-01
    x[5,3]    findWorstP[3,5]  -3.0129990714948934e-01
    x[5,3]    findWorstP[4,5]  -8.6457623267439207e-02
    x[5,3]    findWorstP[5,1]  2.2975590856257264e-01
    x[5,3]    findWorstP[5,2]  2.2975590856257264e-01
    x[5,3]    findWorstP[5,3]  2.2975590856257264e-01
    x[5,3]    findWorstP[5,4]  2.2975590856257264e-01
    MARKER    'MARKER'                 'INTEND'
RHS
    RHS1      allocateEach[1]  1
    RHS1      allocateEach[2]  1
    RHS1      allocateEach[3]  1
    RHS1      allocateAllCash  1
BOUNDS
 UP BND1      z         1
 MI BND1      cashProportion[1]
 UP BND1      cashProportion[1]  1
 MI BND1      cashProportion[2]
 UP BND1      cashProportion[2]  1
 MI BND1      cashProportion[3]
 UP BND1      cashProportion[3]  1
 MI BND1      cashProportion[4]
 UP BND1      cashProportion[4]  1
 MI BND1      cashProportion[5]
 UP BND1      cashProportion[5]  1
 BV BND1      x[1,1]  
 BV BND1      x[1,2]  
 BV BND1      x[1,3]  
 BV BND1      x[2,1]  
 BV BND1      x[2,2]  
 BV BND1      x[2,3]  
 BV BND1      x[3,1]  
 BV BND1      x[3,2]  
 BV BND1      x[3,3]  
 BV BND1      x[4,1]  
 BV BND1      x[4,2]  
 BV BND1      x[4,3]  
 BV BND1      x[5,1]  
 BV BND1      x[5,2]  
 BV BND1      x[5,3]  
ENDATA
